p cnf 101 180
101 0 
-101 -3 -74 0 
-101 -97 26 0 
-101 52 -49 0 
-101 70 38 0 
-101 -36 -93 -43 0 
-101 85 28 -11 0 
-101 86 -61 -19 0 
-101 -10 -4 20 0 
-101 -6 34 21 0 
-101 -14 -32 21 0 
-101 -35 87 22 0 
-101 97 -16 22 0 
-101 43 -91 -30 0 
-101 -42 -13 45 0 
-101 53 -67 45 0 
-101 6 100 46 0 
-101 -100 17 46 0 
-101 -67 -13 60 0 
-101 63 -32 60 0 
-101 78 -40 68 0 
-101 66 -54 68 0 
-101 53 16 71 0 
-101 96 92 71 0 
-101 -40 52 -79 0 
-101 23 -64 1 0 
-101 40 98 1 0 
-101 -15 40 1 0 
-101 86 67 18 0 
-101 77 -15 37 0 
-101 66 -88 37 0 
-101 -47 -14 -42 0 
-101 -72 -2 -42 0 
-101 -14 95 -62 0 
-101 100 -13 -62 0 
-101 90 72 -66 0 
-101 4 -17 -66 0 
-101 -93 91 -80 0 
-101 -53 -63 -80 0 
-101 57 -84 -80 0 
-101 63 47 81 0 
-101 81 8 2 0 
-101 33 4 81 0 
-101 28 -52 83 0 
-101 -6 63 83 0 
-101 -24 -85 6 0 
-101 61 39 6 0 
-101 -73 8 9 0 
-101 28 -51 9 0 
-101 53 85 9 0 
-101 57 28 9 0 
-101 96 -92 -24 0 
-101 -93 -24 53 0 
-101 -24 -77 53 0 
-101 -2 34 28 0 
-101 30 -91 28 0 
-101 28 90 77 0 
-101 30 -91 64 0 
-101 -4 -51 30 0 
-101 58 -40 -35 0 
-101 76 -4 -35 0 
-101 -50 -75 39 0 
-101 17 39 64 0 
-101 -14 -58 44 0 
-101 -75 93 48 0 
-101 23 67 48 0 
-101 15 8 -57 0 
-101 -57 16 55 0 
-101 92 69 61 0 
-101 2 -56 95 0 
-101 38 -17 97 0 
74 69 -48 0 
74 -60 51 0 
74 44 -63 0 
74 -1 -75 0 
74 -46 72 0 
74 -72 0 
74 86 77 0 
74 37 5 0 
-22 5 13 0 
-21 5 42 0 
-9 -75 11 0 
-45 69 59 0 
-45 -12 -50 0 
-45 -32 0 
-45 -51 78 0 
-46 -54 -39 0 
-46 -57 -18 0 
-46 -52 -25 0 
-46 49 -91 0 
-60 12 -30 0 
-60 2 -64 0 
-60 -91 57 0 
-60 3 -87 0 
-60 52 67 0 
-68 53 -69 0 
-68 15 -81 0 
-68 56 -51 0 
79 -25 -8 0 
79 35 -18 0 
-1 10 24 0 
-1 -88 -84 0 
-1 -96 -64 0 
-37 -56 98 0 
-37 3 -91 0 
-37 26 52 0 
-9 32 99 0 
-9 40 15 0 
-9 -99 58 0 
-9 55 -58 0 
-9 70 -12 0 
-9 -55 -44 0 
-9 90 75 0 
-44 -26 -55 0 
-30 -16 -26 0 
-28 15 -50 0 
-28 75 -63 0 
-28 92 87 0 
-30 -33 -90 0 
-30 -70 58 0 
-30 33 86 0 
35 -13 57 0 
35 77 -40 0 
35 57 -23 0 
35 -4 49 0 
-44 47 0 
-44 8 -97 0 
-44 -38 -56 0 
-61 -29 85 0 
29 -61 33 0 
62 49 -15 0 
62 39 -99 0 
62 -29 -33 0 
56 -91 -86 0 
-69 40 93 0 
-69 92 -90 0 
-69 -12 87 0 
-69 -67 52 0 
53 77 -84 0 
53 93 88 0 
53 76 -92 0 
29 75 -51 0 
29 54 -10 0 
29 -91 -72 0 
29 -87 -4 0 
-10 -17 12 0 
-10 17 3 0 
-10 -77 50 0 
-10 -86 -85 0 
-10 -61 14 0 
-17 52 -8 0 
-17 73 51 0 
-17 -47 -84 0 
-17 96 63 0 
-26 -65 -48 0 
-26 -93 -23 0 
-26 -92 54 0 
-26 -14 90 0 
-26 40 -33 0 
66 -47 -57 0 
66 15 72 0 
66 16 83 0 
66 99 0 
-40 -13 33 0 
-92 23 63 0 
-52 14 -3 0 
-52 -3 -75 0 
-52 -54 58 0 
-77 8 90 0 
-77 32 50 0 
-65 -23 6 0 
-65 48 0 
14 -2 -3 0 
14 -84 50 0 
-63 -70 67 0 
-63 23 0 
-70 -95 3 0 
-70 -85 100 0 
51 -73 47 0 
51 -33 -48 0 
